Set parameter TokenServer to value "hpc-licenses.hpcc.usc.edu"
Set parameter TimeLimit to value 3600
Gurobi Optimizer version 9.5.1 build v9.5.1rc2 (linux64)
Thread count: 20 physical cores, 20 logical processors, using up to 20 threads
Optimize a model with 6007 rows, 4529 columns and 24534 nonzeros
Model fingerprint: 0xf2133283
Variable types: 4506 continuous, 23 integer (23 binary)
Coefficient statistics:
  Matrix range     [1e+00, 1e+00]
  Objective range  [1e-03, 1e+00]
  Bounds range     [1e+00, 1e+00]
  RHS range        [1e+00, 1e+02]
Found heuristic solution: objective 255.9425783
Presolve removed 1520 rows and 1515 columns
Presolve time: 0.06s
Presolved: 4487 rows, 3014 columns, 21975 nonzeros
Variable types: 2994 continuous, 20 integer (20 binary)

Root relaxation: objective 2.716298e+02, 2824 iterations, 0.15 seconds (0.19 work units)

    Nodes    |    Current Node    |     Objective Bounds      |     Work
 Expl Unexpl |  Obj  Depth IntInf | Incumbent    BestBd   Gap | It/Node Time

     0     0  271.62984    0    2  255.94258  271.62984  6.13%     -    0s
H    0     0                     260.6874882  271.62984  4.20%     -    0s
     0     0  271.59691    0    2  260.68749  271.59691  4.18%     -    0s
H    0     0                     263.1592644  271.59691  3.21%     -    0s
     0     0  271.45865    0    2  263.15926  271.45865  3.15%     -    0s
     0     0  270.77386    0    5  263.15926  270.77386  2.89%     -    0s
     0     0  270.77386    0    4  263.15926  270.77386  2.89%     -    0s
     0     0  270.33615    0    2  263.15926  270.33615  2.73%     -    0s
H    0     0                     265.2422996  270.33615  1.92%     -    0s
     0     0  270.31879    0    6  265.24230  270.31879  1.91%     -    0s
     0     0  270.31879    0    6  265.24230  270.31879  1.91%     -    1s
     0     2  270.31879    0    6  265.24230  270.31879  1.91%     -    1s
*   10     2               5     265.6185367  269.54552  1.48%   280    1s
*   12     2               6     268.7779216  269.40410  0.23%   282    1s

Cutting planes:
  Gomory: 3
  MIR: 99
  Flow cover: 1
  RLT: 10
  Relax-and-lift: 2

Explored 19 nodes (8083 simplex iterations) in 1.71 seconds (1.44 work units)
Thread count was 20 (of 20 available processors)

Solution count 6: 268.778 265.619 265.242 ... 255.943

Optimal solution found (tolerance 1.00e-04)
Best objective 2.687779216098e+02, best bound 2.687779216098e+02, gap 0.0000%



#########node  1
V1.7
#########node  2
0.14965986394557823,0.8503401360544218
#########node  3
1.0,0.0


Total Solving Time 2.1435537338256836
obj value 268.7779216098116
Policy Regret train (Sum) 9.912030792665206
Best Treatment Found train (%) 57.599999999999994
treatment classification acc train (%) 72.8
Policy Regret test (Sum) 38.72832714295484
Best Treatment Found test (%) 81.04
treatment classification acc test (%) 74.56
